25 500
  0     40.0     50.0       0.0      960.0      0.0       0.0       0.0  
  1     25.0     85.0      613.0     853.0     10.0      18.0      20.0  
  2     22.0     75.0      92.0      332.0     10.0       2.0      30.0  
  3     22.0     85.0      411.0     651.0     10.0       8.0      10.0  
  4     20.0     80.0      584.0     824.0     10.0       5.0      40.0  
  5     20.0     85.0      40.0      280.0     10.0      11.0      20.0  
  6     18.0     75.0      328.0     568.0     10.0      11.0      20.0  
  7     15.0     75.0      240.0     480.0     10.0       8.0      20.0  
  8     15.0     80.0      307.0     547.0     10.0       5.0      10.0  
  9     10.0     35.0      311.0     551.0     10.0      12.0      20.0  
 10     10.0     40.0      459.0     699.0     10.0      28.0      30.0  
 11      8.0     40.0      135.0     375.0     10.0      24.0      40.0  
 12      8.0     45.0      163.0     403.0     10.0      18.0      20.0  
 13      5.0     35.0      593.0     833.0     10.0       2.0      10.0  
 14      5.0     45.0      35.0      275.0     10.0       8.0      10.0  
 15      2.0     40.0      114.0     354.0     10.0      11.0      20.0  
 16      0.0     40.0      195.0     435.0     10.0      14.0      20.0  
 17      0.0     45.0      643.0     883.0     10.0      18.0      20.0  
 18     44.0      5.0      275.0     515.0     10.0       7.0      20.0  
 19     42.0     10.0      194.0     434.0     10.0      13.0      40.0  
 20     42.0     15.0      477.0     717.0     10.0       7.0      10.0  
 21     40.0      5.0      155.0     395.0     10.0      10.0      10.0  
 22     40.0     15.0      315.0     555.0     10.0      32.0      40.0  
 23     38.0      5.0      141.0     381.0     10.0      10.0      30.0  
 24     38.0     15.0      621.0     861.0     10.0       7.0      10.0  
 25     35.0      5.0      664.0     904.0     10.0       9.0      20.0  
 26     95.0     30.0      469.0     709.0     10.0       5.0      30.0  
 27     95.0     35.0      86.0      326.0     10.0      15.0      20.0  
 28     92.0     30.0      89.0      329.0     10.0       2.0      10.0  
 29     90.0     35.0      134.0     374.0     10.0       2.0      10.0  
 30     88.0     30.0      186.0     426.0     10.0       5.0      10.0  
 31     88.0     35.0      105.0     345.0     10.0      13.0      20.0  
 32     87.0     30.0      561.0     801.0     10.0       0.0      10.0  
 33     85.0     25.0      51.0      291.0     10.0       3.0      10.0  
 34     85.0     35.0      427.0     667.0     10.0       3.0      30.0  
 35     67.0     85.0      597.0     837.0     10.0      18.0      20.0  
 36     65.0     85.0      43.0      283.0     10.0      29.0      40.0  
 37     65.0     82.0      497.0     737.0     10.0       1.0      10.0  
 38     62.0     80.0      218.0     458.0     10.0      15.0      30.0  
 39     60.0     80.0      36.0      276.0     10.0       8.0      10.0  
 40     60.0     85.0      269.0     509.0     10.0      15.0      30.0  
 41     58.0     75.0      316.0     556.0     10.0       5.0      20.0  
 42     55.0     80.0      33.0      273.0     10.0       3.0      10.0  
 43     55.0     85.0      514.0     754.0     10.0       2.0      20.0  
 44     55.0     82.0      157.0     397.0     10.0       1.0      10.0  
 45     20.0     82.0      37.0      277.0     10.0      10.0      10.0  
 46     18.0     80.0      429.0     669.0     10.0       2.0      10.0  
 47      2.0     45.0      45.0      285.0     10.0       9.0      10.0  
 48     42.0      5.0      664.0     904.0     10.0       3.0      10.0  
 49     42.0     12.0      380.0     620.0     10.0       7.0      10.0  
 50     72.0     35.0      447.0     687.0     10.0      19.0      30.0  
